sat_in/bonus/16.wcnf
p wcnf 15 7
8 -1 -3 0
8 -1 -5 0
8 -1 -7 0
8 -2 -3 0
8 -4 -7 0
8 -5 -6 0
8 -5 -7 0
8 -6 -7 0
1 1 1 0
1 2 2 0
1 3 3 0
1 4 4 0
1 5 5 0
1 6 6 0
1 7 7 0
